benchmark/results/graph__15-1000-0.10-02_0/graph__15-1000-0.10-02_0_QuintonOs_Benders_aux.lp
\ This file has been generated by DOcplex
\ ENCODING=ISO-8859-1
\Problem name: Quinton Bounded Benders_auxiliary_sub

Minimize
 obj: 0.001140984330 pi_nr_a0 + 0.000955556136 pi_nr_a1
      + 0.001729001013 pi_nr_a2 + 0.000954643475 pi_nr_a3
      + 0.001830607543 pi_nr_a4 + 0.001022399376 pi_nr_a5
      + 0.001145355219 pi_nr_a6 + 0.000958304620 pi_nr_a7
      + 0.001010628634 pi_nr_a8 + 0.000850648271 pi_nr_a9
      + 0.001619954163 pi_nr_a10 + 0.000943825986 pi_nr_a11
      + 0.000879125322 pi_nr_a12 + 0.001044487534 pi_nr_a13
      + 0.001100783831 pi_nr_a14 + pi_p_a2_a4 + pi_p_a0_a8 + pi_p_a0_a10
      + pi_p_a12_a2 + pi_p_a5_a14 + pi_p_a1_a6 + pi_p_a8_a10 + pi_p_a14_a8
      + pi_p_a14_a11 + pi_p_a12_a14 + 1032.030761718750 pi_d_a0_a1_proc_1
      + 1003.750000000000 pi_d_a1_a0_proc_1
      + 1360.562011718750 pi_d_a0_a2_proc_0
      + 1054.413574218750 pi_d_a0_a2_proc_1
      + 1331.750000000000 pi_d_a2_a0_proc_0
      + 1025.601562500000 pi_d_a2_a0_proc_1
      + 1032.030761718750 pi_d_a0_a3_proc_1
      + 1003.750000000000 pi_d_a3_a0_proc_1 + 179.706542968750 pi_d_a0_a4_proc_0
      + 174.003906250000 pi_d_a4_a0_proc_0 + 1092.637695312500 pi_d_a0_a5_proc_0
      + 1298.676757812500 pi_d_a0_a5_proc_1
      + 1087.486816406250 pi_d_a5_a0_proc_0
      + 1293.525878906250 pi_d_a5_a0_proc_1 + 192.015136718750 pi_d_a0_a6_proc_0
      + 2200.022949218750 pi_d_a0_a6_proc_1 + 186.140625000000 pi_d_a6_a0_proc_0
      + 2194.148437500000 pi_d_a6_a0_proc_1
      + 1032.030761718750 pi_d_a0_a7_proc_1
      + 1003.750000000000 pi_d_a7_a0_proc_1 + 175.581542968750 pi_d_a0_a8_proc_0
      + 178.128906250000 pi_d_a8_a0_proc_0 + 179.706542968750 pi_d_a0_a9_proc_0
      + 174.003906250000 pi_d_a9_a0_proc_0 + 179.706542968750 pi_d_a0_a10_proc_0
      + 174.003906250000 pi_d_a10_a0_proc_0
      + 1032.030761718750 pi_d_a0_a11_proc_1
      + 1003.750000000000 pi_d_a11_a0_proc_1
      + 1339.321777343750 pi_d_a0_a12_proc_0
      + 1073.915527343750 pi_d_a0_a12_proc_1
      + 1312.248046875000 pi_d_a12_a0_proc_0
      + 1046.841796875000 pi_d_a12_a0_proc_1
      + 1095.144042968750 pi_d_a0_a13_proc_0
      + 1320.972167968750 pi_d_a0_a13_proc_1
      + 1065.191406250000 pi_d_a13_a0_proc_0
      + 1291.019531250000 pi_d_a13_a0_proc_1
      + 1004.057617187500 pi_d_a0_a14_proc_1
      + 1031.723144531250 pi_d_a14_a0_proc_1 + 24.577636718750 pi_d_a1_a2_proc_1
      + 22.984375000000 pi_d_a2_a1_proc_1 + 2.163574218750 pi_d_a1_a3_proc_1
      + 1.164062500000 pi_d_a3_a1_proc_1 + 276.123535156250 pi_d_a1_a5_proc_1
      + 283.625976562500 pi_d_a5_a1_proc_1 + 1197.187011718750 pi_d_a1_a6_proc_1
      + 1164.531250000000 pi_d_a6_a1_proc_1 + 2.163574218750 pi_d_a1_a7_proc_1
      + 1.164062500000 pi_d_a7_a1_proc_1 + 2.163574218750 pi_d_a1_a11_proc_1
      + 1.164062500000 pi_d_a11_a1_proc_1 + 44.258300781250 pi_d_a1_a12_proc_1
      + 44.045898437500 pi_d_a12_a1_proc_1 + 293.886230468750 pi_d_a1_a13_proc_1
      + 285.652343750000 pi_d_a13_a1_proc_1 + 1.212890625000 pi_d_a1_a14_proc_1
      + 2.114746093750 pi_d_a14_a1_proc_1 + 23.604492187500 pi_d_a2_a3_proc_1
      + 23.957519531250 pi_d_a3_a2_proc_1 + 1187.125976562500 pi_d_a2_a4_proc_0
      + 1154.803222656250 pi_d_a4_a2_proc_0
      + 2087.854003906250 pi_d_a2_a5_proc_0 + 305.674316406250 pi_d_a2_a5_proc_1
      + 2080.489257812500 pi_d_a5_a2_proc_0 + 298.309570312500 pi_d_a5_a2_proc_1
      + 1167.469726562500 pi_d_a2_a6_proc_0
      + 1187.258789062500 pi_d_a2_a6_proc_1
      + 1198.904785156250 pi_d_a6_a2_proc_0
      + 1218.693847656250 pi_d_a6_a2_proc_1 + 23.088867187500 pi_d_a2_a7_proc_1
      + 24.473144531250 pi_d_a7_a2_proc_1 + 1155.819335937500 pi_d_a2_a8_proc_0
      + 1186.109863281250 pi_d_a8_a2_proc_0
      + 1186.110351562500 pi_d_a2_a9_proc_0
      + 1155.818847656250 pi_d_a9_a2_proc_0
      + 1187.143554687500 pi_d_a2_a10_proc_0
      + 1154.785644531250 pi_d_a10_a2_proc_0
      + 23.604980468750 pi_d_a2_a11_proc_1 + 23.957031250000 pi_d_a11_a2_proc_1
      + 2320.315917968750 pi_d_a2_a12_proc_0
      + 66.690917968750 pi_d_a2_a12_proc_1
      + 2319.472656250000 pi_d_a12_a2_proc_0
      + 65.847656250000 pi_d_a12_a2_proc_1
      + 2077.563476562500 pi_d_a2_a13_proc_0
      + 315.172851562500 pi_d_a2_a13_proc_1
      + 2070.990722656250 pi_d_a13_a2_proc_0
      + 308.600097656250 pi_d_a13_a2_proc_1 + 23.596679687500 pi_d_a2_a14_proc_1
      + 23.965332031250 pi_d_a14_a2_proc_1 + 283.342285156250 pi_d_a3_a5_proc_1
      + 276.407226562500 pi_d_a5_a3_proc_1 + 1165.596679687500 pi_d_a3_a6_proc_1
      + 1196.121582031250 pi_d_a6_a3_proc_1 + 2.163574218750 pi_d_a3_a7_proc_1
      + 1.164062500000 pi_d_a7_a3_proc_1 + 2.163574218750 pi_d_a3_a11_proc_1
      + 1.164062500000 pi_d_a11_a3_proc_1 + 44.113281250000 pi_d_a3_a12_proc_1
      + 44.190917968750 pi_d_a12_a3_proc_1 + 294.136230468750 pi_d_a3_a13_proc_1
      + 285.402343750000 pi_d_a13_a3_proc_1 + 1.181640625000 pi_d_a3_a14_proc_1
      + 2.145996093750 pi_d_a14_a3_proc_1 + 914.627929687500 pi_d_a4_a5_proc_0
      + 915.113769531250 pi_d_a5_a4_proc_0 + 13.626953125000 pi_d_a4_a6_proc_0
      + 14.145996093750 pi_d_a6_a4_proc_0 + 2.163574218750 pi_d_a4_a8_proc_0
      + 1.164062500000 pi_d_a8_a4_proc_0 + 2.163574218750 pi_d_a4_a9_proc_0
      + 1.164062500000 pi_d_a9_a4_proc_0 + 2.163574218750 pi_d_a4_a10_proc_0
      + 1.164062500000 pi_d_a10_a4_proc_0 + 1135.025878906250 pi_d_a4_a12_proc_0
      + 1166.161132812500 pi_d_a12_a4_proc_0
      + 917.601074218750 pi_d_a4_a13_proc_0
      + 892.351562500000 pi_d_a13_a4_proc_0 + 939.969726562500 pi_d_a5_a6_proc_0
      + 1471.946289062500 pi_d_a5_a6_proc_1 + 914.217285156250 pi_d_a6_a5_proc_0
      + 1446.193847656250 pi_d_a6_a5_proc_1 + 284.109375000000 pi_d_a5_a7_proc_1
      + 275.640136718750 pi_d_a7_a5_proc_1 + 927.629394531250 pi_d_a5_a8_proc_0
      + 902.112304687500 pi_d_a8_a5_proc_0 + 927.629394531250 pi_d_a5_a9_proc_0
      + 902.112304687500 pi_d_a9_a5_proc_0 + 927.629394531250 pi_d_a5_a10_proc_0
      + 902.112304687500 pi_d_a10_a5_proc_0
      + 276.906250000000 pi_d_a5_a11_proc_1
      + 282.843261718750 pi_d_a11_a5_proc_1
      + 2066.694824218750 pi_d_a5_a12_proc_0
      + 325.257324218750 pi_d_a5_a12_proc_1
      + 2060.906250000000 pi_d_a12_a5_proc_0
      + 319.468750000000 pi_d_a12_a5_proc_1
      + 1819.066894531250 pi_d_a5_a13_proc_0
      + 568.863769531250 pi_d_a5_a13_proc_1
      + 1817.299804687500 pi_d_a13_a5_proc_0
      + 567.096679687500 pi_d_a13_a5_proc_1
      + 284.101074218750 pi_d_a5_a14_proc_1
      + 275.648437500000 pi_d_a14_a5_proc_1
      + 1197.187011718750 pi_d_a6_a7_proc_1
      + 1164.531250000000 pi_d_a7_a6_proc_1 + 14.550292968750 pi_d_a6_a8_proc_0
      + 13.222656250000 pi_d_a8_a6_proc_0 + 14.550292968750 pi_d_a6_a9_proc_0
      + 13.222656250000 pi_d_a9_a6_proc_0 + 14.550292968750 pi_d_a6_a10_proc_0
      + 13.222656250000 pi_d_a10_a6_proc_0
      + 1197.187011718750 pi_d_a6_a11_proc_1
      + 1164.531250000000 pi_d_a11_a6_proc_1
      + 1178.544433593750 pi_d_a6_a12_proc_0
      + 1239.075683593750 pi_d_a6_a12_proc_1
      + 1147.087890625000 pi_d_a12_a6_proc_0
      + 1207.619140625000 pi_d_a12_a6_proc_1
      + 929.737792968750 pi_d_a6_a13_proc_0
      + 1481.503417968750 pi_d_a6_a13_proc_1
      + 904.660156250000 pi_d_a13_a6_proc_0
      + 1456.425781250000 pi_d_a13_a6_proc_1
      + 1197.178710937500 pi_d_a6_a14_proc_1
      + 1164.539550781250 pi_d_a14_a6_proc_1 + 2.163574218750 pi_d_a7_a11_proc_1
      + 1.164062500000 pi_d_a11_a7_proc_1 + 44.242187500000 pi_d_a7_a12_proc_1
      + 44.062011718750 pi_d_a12_a7_proc_1 + 294.136230468750 pi_d_a7_a13_proc_1
      + 285.402343750000 pi_d_a13_a7_proc_1 + 1.181640625000 pi_d_a7_a14_proc_1
      + 2.145996093750 pi_d_a14_a7_proc_1 + 1.164062500000 pi_d_a8_a9_proc_0
      + 2.163574218750 pi_d_a9_a8_proc_0 + 2.163574218750 pi_d_a8_a10_proc_0
      + 1.164062500000 pi_d_a10_a8_proc_0 + 1166.479003906250 pi_d_a8_a12_proc_0
      + 1134.708007812500 pi_d_a12_a8_proc_0
      + 917.359375000000 pi_d_a8_a13_proc_0
      + 892.593261718750 pi_d_a13_a8_proc_0 + 2.163574218750 pi_d_a9_a10_proc_0
      + 1.164062500000 pi_d_a10_a9_proc_0 + 1166.479003906250 pi_d_a9_a12_proc_0
      + 1134.708007812500 pi_d_a12_a9_proc_0
      + 917.359375000000 pi_d_a9_a13_proc_0
      + 892.593261718750 pi_d_a13_a9_proc_0
      + 1165.963378906250 pi_d_a10_a12_proc_0
      + 1135.223632812500 pi_d_a12_a10_proc_0
      + 905.359375000000 pi_d_a10_a13_proc_0
      + 904.593261718750 pi_d_a13_a10_proc_0
      + 44.242187500000 pi_d_a11_a12_proc_1
      + 44.062011718750 pi_d_a12_a11_proc_1
      + 293.378417968750 pi_d_a11_a13_proc_1
      + 286.160156250000 pi_d_a13_a11_proc_1
      + 1.164062500000 pi_d_a11_a14_proc_1 + 2.163574218750 pi_d_a14_a11_proc_1
      + 2057.703125000000 pi_d_a12_a13_proc_0
      + 336.054687500000 pi_d_a12_a13_proc_1
      + 2050.108886718750 pi_d_a13_a12_proc_0
      + 328.460449218750 pi_d_a13_a12_proc_1
      + 45.222167968750 pi_d_a12_a14_proc_1
      + 43.082031250000 pi_d_a14_a12_proc_1
      + 293.378417968750 pi_d_a13_a14_proc_1
      + 286.160156250000 pi_d_a14_a13_proc_1 + 0.852539062500 pi_y2_a0_proc_0
      + 0.146972656250 pi_y2_a0_proc_1 + 0.999511718750 pi_y2_a1_proc_1
      + 0.018554687500 pi_y2_a2_proc_0 + 0.980957031250 pi_y2_a2_proc_1
      + 0.999511718750 pi_y2_a3_proc_1 + 0.999511718750 pi_y2_a4_proc_0
      + 0.233398437500 pi_y2_a5_proc_0 + 0.766113281250 pi_y2_a5_proc_1
      + 0.989257812500 pi_y2_a6_proc_0 + 0.010253906250 pi_y2_a6_proc_1
      + 0.999511718750 pi_y2_a7_proc_1 + 0.999511718750 pi_y2_a8_proc_0
      + 0.999511718750 pi_y2_a9_proc_0 + 0.999511718750 pi_y2_a10_proc_0
      + 0.999511718750 pi_y2_a11_proc_1 + 0.035644531250 pi_y2_a12_proc_0
      + 0.963867187500 pi_y2_a12_proc_1 + 0.241699218750 pi_y2_a13_proc_0
      + 0.757812500000 pi_y2_a13_proc_1 + 0.999511718750 pi_y2_a14_proc_1
Subject To
 c1: 0.001150747986 pi_nr_a0 + 0.000956022945 pi_nr_a1 + 0.001736111111 pi_nr_a2
     + 0.000955109838 pi_nr_a3 + 0.001831501832 pi_nr_a4
     + 0.001059322034 pi_nr_a5 + 0.001146788991 pi_nr_a6
     + 0.000958772771 pi_nr_a7 + 0.001011122346 pi_nr_a8
     + 0.000851063830 pi_nr_a9 + 0.001620745543 pi_nr_a10
     + 0.000944287063 pi_nr_a11 + 0.000881057269 pi_nr_a12
     + 0.001031991744 pi_nr_a13 + 0.001101321586 pi_nr_a14 + pi_p_a2_a4
     + pi_p_a0_a8 + pi_p_a0_a10 + pi_p_a12_a2 + pi_p_a5_a14 + pi_p_a1_a6
     + pi_p_a8_a10 + pi_p_a14_a8 + pi_p_a14_a11 + pi_p_a12_a14
     + 1209 pi_d_a0_a1_proc_1 + 1176 pi_d_a1_a0_proc_1 + 1209 pi_d_a0_a2_proc_0
     + 1209 pi_d_a0_a2_proc_1 + 1176 pi_d_a2_a0_proc_0 + 1176 pi_d_a2_a0_proc_1
     + 1209 pi_d_a0_a3_proc_1 + 1176 pi_d_a3_a0_proc_1 + pi_d_a0_a4_proc_0
     + 1193 pi_d_a0_a5_proc_0 + 1193 pi_d_a0_a5_proc_1 + 1192 pi_d_a5_a0_proc_0
     + 1192 pi_d_a5_a0_proc_1 + pi_d_a0_a6_proc_0 + 2385 pi_d_a0_a6_proc_1
     + 2384 pi_d_a6_a0_proc_1 + 1209 pi_d_a0_a7_proc_1 + 1176 pi_d_a7_a0_proc_1
     + pi_d_a0_a8_proc_0 + pi_d_a0_a9_proc_0 + pi_d_a0_a10_proc_0
     + 1209 pi_d_a0_a11_proc_1 + 1176 pi_d_a11_a0_proc_1
     + 1209 pi_d_a0_a12_proc_0 + 1209 pi_d_a0_a12_proc_1
     + 1176 pi_d_a12_a0_proc_0 + 1176 pi_d_a12_a0_proc_1
     + 1209 pi_d_a0_a13_proc_0 + 1209 pi_d_a0_a13_proc_1
     + 1176 pi_d_a13_a0_proc_0 + 1176 pi_d_a13_a0_proc_1
     + 1176 pi_d_a0_a14_proc_1 + 1209 pi_d_a14_a0_proc_1 + pi_d_a1_a2_proc_1
     + pi_d_a1_a3_proc_1 + pi_d_a5_a1_proc_1 + 1209 pi_d_a1_a6_proc_1
     + 1176 pi_d_a6_a1_proc_1 + pi_d_a1_a7_proc_1 + pi_d_a1_a11_proc_1
     + pi_d_a12_a1_proc_1 + pi_d_a1_a13_proc_1 + pi_d_a14_a1_proc_1
     + pi_d_a3_a2_proc_1 + 1209 pi_d_a2_a4_proc_0 + 1176 pi_d_a4_a2_proc_0
     + 2384 pi_d_a2_a5_proc_0 + 2385 pi_d_a5_a2_proc_0 + pi_d_a5_a2_proc_1
     + 1176 pi_d_a2_a6_proc_0 + 1176 pi_d_a2_a6_proc_1 + 1209 pi_d_a6_a2_proc_0
     + 1209 pi_d_a6_a2_proc_1 + pi_d_a7_a2_proc_1 + 1176 pi_d_a2_a8_proc_0
     + 1209 pi_d_a8_a2_proc_0 + 1209 pi_d_a2_a9_proc_0 + 1176 pi_d_a9_a2_proc_0
     + 1209 pi_d_a2_a10_proc_0 + 1176 pi_d_a10_a2_proc_0 + pi_d_a11_a2_proc_1
     + 2384 pi_d_a2_a12_proc_0 + 2385 pi_d_a12_a2_proc_0 + pi_d_a12_a2_proc_1
     + 2384 pi_d_a2_a13_proc_0 + 2385 pi_d_a13_a2_proc_0 + pi_d_a13_a2_proc_1
     + pi_d_a14_a2_proc_1 + pi_d_a5_a3_proc_1 + 1176 pi_d_a3_a6_proc_1
     + 1209 pi_d_a6_a3_proc_1 + pi_d_a3_a7_proc_1 + pi_d_a3_a11_proc_1
     + pi_d_a12_a3_proc_1 + pi_d_a3_a13_proc_1 + pi_d_a14_a3_proc_1
     + 1192 pi_d_a4_a5_proc_0 + 1193 pi_d_a5_a4_proc_0 + pi_d_a6_a4_proc_0
     + pi_d_a4_a8_proc_0 + pi_d_a4_a9_proc_0 + pi_d_a4_a10_proc_0
     + 1176 pi_d_a4_a12_proc_0 + 1209 pi_d_a12_a4_proc_0
     + 1209 pi_d_a4_a13_proc_0 + 1176 pi_d_a13_a4_proc_0
     + 1209 pi_d_a5_a6_proc_0 + 1209 pi_d_a5_a6_proc_1 + 1176 pi_d_a6_a5_proc_0
     + 1176 pi_d_a6_a5_proc_1 + pi_d_a5_a7_proc_1 + 1209 pi_d_a5_a8_proc_0
     + 1176 pi_d_a8_a5_proc_0 + 1209 pi_d_a5_a9_proc_0 + 1176 pi_d_a9_a5_proc_0
     + 1209 pi_d_a5_a10_proc_0 + 1176 pi_d_a10_a5_proc_0 + pi_d_a5_a11_proc_1
     + 2384 pi_d_a5_a12_proc_0 + 2385 pi_d_a12_a5_proc_0 + pi_d_a12_a5_proc_1
     + 2385 pi_d_a5_a13_proc_0 + pi_d_a5_a13_proc_1 + 2384 pi_d_a13_a5_proc_0
     + pi_d_a5_a14_proc_1 + 1209 pi_d_a6_a7_proc_1 + 1176 pi_d_a7_a6_proc_1
     + pi_d_a6_a8_proc_0 + pi_d_a6_a9_proc_0 + pi_d_a6_a10_proc_0
     + 1209 pi_d_a6_a11_proc_1 + 1176 pi_d_a11_a6_proc_1
     + 1209 pi_d_a6_a12_proc_0 + 1209 pi_d_a6_a12_proc_1
     + 1176 pi_d_a12_a6_proc_0 + 1176 pi_d_a12_a6_proc_1
     + 1209 pi_d_a6_a13_proc_0 + 1209 pi_d_a6_a13_proc_1
     + 1176 pi_d_a13_a6_proc_0 + 1176 pi_d_a13_a6_proc_1
     + 1209 pi_d_a6_a14_proc_1 + 1176 pi_d_a14_a6_proc_1 + pi_d_a7_a11_proc_1
     + pi_d_a12_a7_proc_1 + pi_d_a7_a13_proc_1 + pi_d_a14_a7_proc_1
     + pi_d_a9_a8_proc_0 + pi_d_a8_a10_proc_0 + 1209 pi_d_a8_a12_proc_0
     + 1176 pi_d_a12_a8_proc_0 + 1209 pi_d_a8_a13_proc_0
     + 1176 pi_d_a13_a8_proc_0 + pi_d_a9_a10_proc_0 + 1209 pi_d_a9_a12_proc_0
     + 1176 pi_d_a12_a9_proc_0 + 1209 pi_d_a9_a13_proc_0
     + 1176 pi_d_a13_a9_proc_0 + 1209 pi_d_a10_a12_proc_0
     + 1176 pi_d_a12_a10_proc_0 + 1193 pi_d_a10_a13_proc_0
     + 1192 pi_d_a13_a10_proc_0 + pi_d_a12_a11_proc_1 + pi_d_a13_a11_proc_1
     + pi_d_a14_a11_proc_1 + 2385 pi_d_a12_a13_proc_0 + pi_d_a12_a13_proc_1
     + 2384 pi_d_a13_a12_proc_0 + pi_d_a12_a14_proc_1 + pi_d_a14_a13_proc_1
     + pi_y2_a0_proc_0 + pi_y2_a1_proc_1 + pi_y2_a2_proc_1 + pi_y2_a3_proc_1
     + pi_y2_a4_proc_0 + pi_y2_a5_proc_1 + pi_y2_a6_proc_0 + pi_y2_a7_proc_1
     + pi_y2_a8_proc_0 + pi_y2_a9_proc_0 + pi_y2_a10_proc_0 + pi_y2_a11_proc_1
     + pi_y2_a12_proc_1 + pi_y2_a13_proc_1 + pi_y2_a14_proc_1 = 0.000113455866
 c2: pi_nr_a0 + pi_nr_a1 + pi_nr_a2 + pi_nr_a3 + pi_nr_a4 + pi_nr_a5 + pi_nr_a6
     + pi_nr_a7 + pi_nr_a8 + pi_nr_a9 + pi_nr_a10 + pi_nr_a11 + pi_nr_a12
     + pi_nr_a13 + pi_nr_a14 - pi_y1_a0 - pi_y1_a1 - pi_y1_a2 - pi_y1_a3
     - pi_y1_a4 - pi_y1_a5 - pi_y1_a6 - pi_y1_a7 - pi_y1_a8 - pi_y1_a9
     - pi_y1_a10 - pi_y1_a11 - pi_y1_a12 - pi_y1_a13 - pi_y1_a14 >= 1
 c3: - pi_p_a1_a0 + pi_p_a0_a8 + pi_p_a0_a10 + pi_p_a0_a12 + pi_d_a0_a1_proc_1
     - pi_d_a1_a0_proc_1 + pi_d_a0_a2_proc_0 + pi_d_a0_a2_proc_1
     - pi_d_a2_a0_proc_0 - pi_d_a2_a0_proc_1 + pi_d_a0_a3_proc_1
     - pi_d_a3_a0_proc_1 + pi_d_a0_a4_proc_0 - pi_d_a4_a0_proc_0
     + pi_d_a0_a5_proc_0 + pi_d_a0_a5_proc_1 - pi_d_a5_a0_proc_0
     - pi_d_a5_a0_proc_1 + pi_d_a0_a6_proc_0 + pi_d_a0_a6_proc_1
     - pi_d_a6_a0_proc_0 - pi_d_a6_a0_proc_1 + pi_d_a0_a7_proc_1
     - pi_d_a7_a0_proc_1 + pi_d_a0_a8_proc_0 - pi_d_a8_a0_proc_0
     + pi_d_a0_a9_proc_0 - pi_d_a9_a0_proc_0 + pi_d_a0_a10_proc_0
     - pi_d_a10_a0_proc_0 + pi_d_a0_a11_proc_1 - pi_d_a11_a0_proc_1
     + pi_d_a0_a12_proc_0 + pi_d_a0_a12_proc_1 - pi_d_a12_a0_proc_0
     - pi_d_a12_a0_proc_1 + pi_d_a0_a13_proc_0 + pi_d_a0_a13_proc_1
     - pi_d_a13_a0_proc_0 - pi_d_a13_a0_proc_1 + pi_d_a0_a14_proc_1
     - pi_d_a14_a0_proc_1 >= 0
 c4: 869 pi_p_a0_a8 + 869 pi_p_a0_a10 + 869 pi_p_a0_a12 + 869 pi_d_a0_a2_proc_0
     + 869 pi_d_a0_a4_proc_0 + 869 pi_d_a0_a5_proc_0 + 869 pi_d_a0_a6_proc_0
     + 869 pi_d_a0_a8_proc_0 + 869 pi_d_a0_a9_proc_0 + 869 pi_d_a0_a10_proc_0
     + 869 pi_d_a0_a12_proc_0 + 869 pi_d_a0_a13_proc_0 + pi_y1_a0
     + pi_y2_a0_proc_0 >= 0
 c5: 919 pi_p_a0_a8 + 919 pi_p_a0_a10 + 919 pi_p_a0_a12 + 919 pi_d_a0_a1_proc_1
     + 919 pi_d_a0_a2_proc_1 + 919 pi_d_a0_a3_proc_1 + 919 pi_d_a0_a5_proc_1
     + 919 pi_d_a0_a6_proc_1 + 919 pi_d_a0_a7_proc_1 + 919 pi_d_a0_a11_proc_1
     + 919 pi_d_a0_a12_proc_1 + 919 pi_d_a0_a13_proc_1 + 919 pi_d_a0_a14_proc_1
     + pi_y1_a0 + pi_y2_a0_proc_1 >= 0
 c6: pi_p_a1_a0 - pi_p_a2_a1 - pi_p_a3_a1 - pi_p_a6_a1 + pi_p_a1_a6
     - pi_d_a0_a1_proc_1 + pi_d_a1_a0_proc_1 + pi_d_a1_a2_proc_1
     - pi_d_a2_a1_proc_1 + pi_d_a1_a3_proc_1 - pi_d_a3_a1_proc_1
     + pi_d_a1_a5_proc_1 - pi_d_a5_a1_proc_1 + pi_d_a1_a6_proc_1
     - pi_d_a6_a1_proc_1 + pi_d_a1_a7_proc_1 - pi_d_a7_a1_proc_1
     + pi_d_a1_a11_proc_1 - pi_d_a11_a1_proc_1 + pi_d_a1_a12_proc_1
     - pi_d_a12_a1_proc_1 + pi_d_a1_a13_proc_1 - pi_d_a13_a1_proc_1
     + pi_d_a1_a14_proc_1 - pi_d_a14_a1_proc_1 >= 0
 c7: 1046 pi_p_a1_a0 + 1046 pi_p_a1_a6 + 1046 pi_d_a1_a0_proc_1
     + 1046 pi_d_a1_a2_proc_1 + 1046 pi_d_a1_a3_proc_1 + 1046 pi_d_a1_a5_proc_1
     + 1046 pi_d_a1_a6_proc_1 + 1046 pi_d_a1_a7_proc_1 + 1046 pi_d_a1_a11_proc_1
     + 1046 pi_d_a1_a12_proc_1 + 1046 pi_d_a1_a13_proc_1
     + 1046 pi_d_a1_a14_proc_1 + pi_y1_a1 + pi_y2_a1_proc_1 >= 0
 c8: pi_p_a2_a1 + pi_p_a2_a4 - pi_p_a12_a2 - pi_d_a0_a2_proc_0
     - pi_d_a0_a2_proc_1 + pi_d_a2_a0_proc_0 + pi_d_a2_a0_proc_1
     - pi_d_a1_a2_proc_1 + pi_d_a2_a1_proc_1 + pi_d_a2_a3_proc_1
     - pi_d_a3_a2_proc_1 + pi_d_a2_a4_proc_0 - pi_d_a4_a2_proc_0
     + pi_d_a2_a5_proc_0 + pi_d_a2_a5_proc_1 - pi_d_a5_a2_proc_0
     - pi_d_a5_a2_proc_1 + pi_d_a2_a6_proc_0 + pi_d_a2_a6_proc_1
     - pi_d_a6_a2_proc_0 - pi_d_a6_a2_proc_1 + pi_d_a2_a7_proc_1
     - pi_d_a7_a2_proc_1 + pi_d_a2_a8_proc_0 - pi_d_a8_a2_proc_0
     + pi_d_a2_a9_proc_0 - pi_d_a9_a2_proc_0 + pi_d_a2_a10_proc_0
     - pi_d_a10_a2_proc_0 + pi_d_a2_a11_proc_1 - pi_d_a11_a2_proc_1
     + pi_d_a2_a12_proc_0 + pi_d_a2_a12_proc_1 - pi_d_a12_a2_proc_0
     - pi_d_a12_a2_proc_1 + pi_d_a2_a13_proc_0 + pi_d_a2_a13_proc_1
     - pi_d_a13_a2_proc_0 - pi_d_a13_a2_proc_1 + pi_d_a2_a14_proc_1
     - pi_d_a14_a2_proc_1 >= 0
 c9: 715 pi_p_a2_a1 + 715 pi_p_a2_a4 + 715 pi_d_a2_a0_proc_0
     + 715 pi_d_a2_a4_proc_0 + 715 pi_d_a2_a5_proc_0 + 715 pi_d_a2_a6_proc_0
     + 715 pi_d_a2_a8_proc_0 + 715 pi_d_a2_a9_proc_0 + 715 pi_d_a2_a10_proc_0
     + 715 pi_d_a2_a12_proc_0 + 715 pi_d_a2_a13_proc_0 + pi_y1_a2
     + pi_y2_a2_proc_0 >= 0
 c10: 576 pi_p_a2_a1 + 576 pi_p_a2_a4 + 576 pi_d_a2_a0_proc_1
      + 576 pi_d_a2_a1_proc_1 + 576 pi_d_a2_a3_proc_1 + 576 pi_d_a2_a5_proc_1
      + 576 pi_d_a2_a6_proc_1 + 576 pi_d_a2_a7_proc_1 + 576 pi_d_a2_a11_proc_1
      + 576 pi_d_a2_a12_proc_1 + 576 pi_d_a2_a13_proc_1 + 576 pi_d_a2_a14_proc_1
      + pi_y1_a2 + pi_y2_a2_proc_1 >= 0
 c11: pi_p_a3_a1 - pi_p_a7_a3 - pi_p_a13_a3 - pi_d_a0_a3_proc_1
      + pi_d_a3_a0_proc_1 - pi_d_a1_a3_proc_1 + pi_d_a3_a1_proc_1
      - pi_d_a2_a3_proc_1 + pi_d_a3_a2_proc_1 + pi_d_a3_a5_proc_1
      - pi_d_a5_a3_proc_1 + pi_d_a3_a6_proc_1 - pi_d_a6_a3_proc_1
      + pi_d_a3_a7_proc_1 - pi_d_a7_a3_proc_1 + pi_d_a3_a11_proc_1
      - pi_d_a11_a3_proc_1 + pi_d_a3_a12_proc_1 - pi_d_a12_a3_proc_1
      + pi_d_a3_a13_proc_1 - pi_d_a13_a3_proc_1 + pi_d_a3_a14_proc_1
      - pi_d_a14_a3_proc_1 >= 0
 c12: 1047 pi_p_a3_a1 + 1047 pi_d_a3_a0_proc_1 + 1047 pi_d_a3_a1_proc_1
      + 1047 pi_d_a3_a2_proc_1 + 1047 pi_d_a3_a5_proc_1 + 1047 pi_d_a3_a6_proc_1
      + 1047 pi_d_a3_a7_proc_1 + 1047 pi_d_a3_a11_proc_1
      + 1047 pi_d_a3_a12_proc_1 + 1047 pi_d_a3_a13_proc_1
      + 1047 pi_d_a3_a14_proc_1 + pi_y1_a3 + pi_y2_a3_proc_1 >= 0
 c13: - pi_p_a2_a4 + pi_p_a4_a5 - pi_p_a13_a4 - pi_p_a11_a4 - pi_d_a0_a4_proc_0
      + pi_d_a4_a0_proc_0 - pi_d_a2_a4_proc_0 + pi_d_a4_a2_proc_0
      + pi_d_a4_a5_proc_0 - pi_d_a5_a4_proc_0 + pi_d_a4_a6_proc_0
      - pi_d_a6_a4_proc_0 + pi_d_a4_a8_proc_0 - pi_d_a8_a4_proc_0
      + pi_d_a4_a9_proc_0 - pi_d_a9_a4_proc_0 + pi_d_a4_a10_proc_0
      - pi_d_a10_a4_proc_0 + pi_d_a4_a12_proc_0 - pi_d_a12_a4_proc_0
      + pi_d_a4_a13_proc_0 - pi_d_a13_a4_proc_0 >= 0
 c14: 546 pi_p_a4_a5 + 546 pi_d_a4_a0_proc_0 + 546 pi_d_a4_a2_proc_0
      + 546 pi_d_a4_a5_proc_0 + 546 pi_d_a4_a6_proc_0 + 546 pi_d_a4_a8_proc_0
      + 546 pi_d_a4_a9_proc_0 + 546 pi_d_a4_a10_proc_0 + 546 pi_d_a4_a12_proc_0
      + 546 pi_d_a4_a13_proc_0 + pi_y1_a4 + pi_y2_a4_proc_0 >= 0
 c15: - pi_p_a4_a5 + pi_p_a5_a14 - pi_d_a0_a5_proc_0 - pi_d_a0_a5_proc_1
      + pi_d_a5_a0_proc_0 + pi_d_a5_a0_proc_1 - pi_d_a1_a5_proc_1
      + pi_d_a5_a1_proc_1 - pi_d_a2_a5_proc_0 - pi_d_a2_a5_proc_1
      + pi_d_a5_a2_proc_0 + pi_d_a5_a2_proc_1 - pi_d_a3_a5_proc_1
      + pi_d_a5_a3_proc_1 - pi_d_a4_a5_proc_0 + pi_d_a5_a4_proc_0
      + pi_d_a5_a6_proc_0 + pi_d_a5_a6_proc_1 - pi_d_a6_a5_proc_0
      - pi_d_a6_a5_proc_1 + pi_d_a5_a7_proc_1 - pi_d_a7_a5_proc_1
      + pi_d_a5_a8_proc_0 - pi_d_a8_a5_proc_0 + pi_d_a5_a9_proc_0
      - pi_d_a9_a5_proc_0 + pi_d_a5_a10_proc_0 - pi_d_a10_a5_proc_0
      + pi_d_a5_a11_proc_1 - pi_d_a11_a5_proc_1 + pi_d_a5_a12_proc_0
      + pi_d_a5_a12_proc_1 - pi_d_a12_a5_proc_0 - pi_d_a12_a5_proc_1
      + pi_d_a5_a13_proc_0 + pi_d_a5_a13_proc_1 - pi_d_a13_a5_proc_0
      - pi_d_a13_a5_proc_1 + pi_d_a5_a14_proc_1 - pi_d_a14_a5_proc_1 >= 0
 c16: 1107 pi_p_a5_a14 + 1107 pi_d_a5_a0_proc_0 + 1107 pi_d_a5_a2_proc_0
      + 1107 pi_d_a5_a4_proc_0 + 1107 pi_d_a5_a6_proc_0 + 1107 pi_d_a5_a8_proc_0
      + 1107 pi_d_a5_a9_proc_0 + 1107 pi_d_a5_a10_proc_0
      + 1107 pi_d_a5_a12_proc_0 + 1107 pi_d_a5_a13_proc_0 + pi_y1_a5
      + pi_y2_a5_proc_0 >= 0
 c17: 944 pi_p_a5_a14 + 944 pi_d_a5_a0_proc_1 + 944 pi_d_a5_a1_proc_1
      + 944 pi_d_a5_a2_proc_1 + 944 pi_d_a5_a3_proc_1 + 944 pi_d_a5_a6_proc_1
      + 944 pi_d_a5_a7_proc_1 + 944 pi_d_a5_a11_proc_1 + 944 pi_d_a5_a12_proc_1
      + 944 pi_d_a5_a13_proc_1 + 944 pi_d_a5_a14_proc_1 + pi_y1_a5
      + pi_y2_a5_proc_1 >= 0
 c18: pi_p_a6_a1 - pi_p_a1_a6 - pi_p_a7_a6 - pi_d_a0_a6_proc_0
      - pi_d_a0_a6_proc_1 + pi_d_a6_a0_proc_0 + pi_d_a6_a0_proc_1
      - pi_d_a1_a6_proc_1 + pi_d_a6_a1_proc_1 - pi_d_a2_a6_proc_0
      - pi_d_a2_a6_proc_1 + pi_d_a6_a2_proc_0 + pi_d_a6_a2_proc_1
      - pi_d_a3_a6_proc_1 + pi_d_a6_a3_proc_1 - pi_d_a4_a6_proc_0
      + pi_d_a6_a4_proc_0 - pi_d_a5_a6_proc_0 - pi_d_a5_a6_proc_1
      + pi_d_a6_a5_proc_0 + pi_d_a6_a5_proc_1 + pi_d_a6_a7_proc_1
      - pi_d_a7_a6_proc_1 + pi_d_a6_a8_proc_0 - pi_d_a8_a6_proc_0
      + pi_d_a6_a9_proc_0 - pi_d_a9_a6_proc_0 + pi_d_a6_a10_proc_0
      - pi_d_a10_a6_proc_0 + pi_d_a6_a11_proc_1 - pi_d_a11_a6_proc_1
      + pi_d_a6_a12_proc_0 + pi_d_a6_a12_proc_1 - pi_d_a12_a6_proc_0
      - pi_d_a12_a6_proc_1 + pi_d_a6_a13_proc_0 + pi_d_a6_a13_proc_1
      - pi_d_a13_a6_proc_0 - pi_d_a13_a6_proc_1 + pi_d_a6_a14_proc_1
      - pi_d_a14_a6_proc_1 >= 0
 c19: 872 pi_p_a6_a1 + 872 pi_d_a6_a0_proc_0 + 872 pi_d_a6_a2_proc_0
      + 872 pi_d_a6_a4_proc_0 + 872 pi_d_a6_a5_proc_0 + 872 pi_d_a6_a8_proc_0
      + 872 pi_d_a6_a9_proc_0 + 872 pi_d_a6_a10_proc_0 + 872 pi_d_a6_a12_proc_0
      + 872 pi_d_a6_a13_proc_0 + pi_y1_a6 + pi_y2_a6_proc_0 >= 0
 c20: 942 pi_p_a6_a1 + 942 pi_d_a6_a0_proc_1 + 942 pi_d_a6_a1_proc_1
      + 942 pi_d_a6_a2_proc_1 + 942 pi_d_a6_a3_proc_1 + 942 pi_d_a6_a5_proc_1
      + 942 pi_d_a6_a7_proc_1 + 942 pi_d_a6_a11_proc_1 + 942 pi_d_a6_a12_proc_1
      + 942 pi_d_a6_a13_proc_1 + 942 pi_d_a6_a14_proc_1 + pi_y1_a6
      + pi_y2_a6_proc_1 >= 0
 c21: pi_p_a7_a3 - pi_p_a13_a7 + pi_p_a7_a6 - pi_d_a0_a7_proc_1
      + pi_d_a7_a0_proc_1 - pi_d_a1_a7_proc_1 + pi_d_a7_a1_proc_1
      - pi_d_a2_a7_proc_1 + pi_d_a7_a2_proc_1 - pi_d_a3_a7_proc_1
      + pi_d_a7_a3_proc_1 - pi_d_a5_a7_proc_1 + pi_d_a7_a5_proc_1
      - pi_d_a6_a7_proc_1 + pi_d_a7_a6_proc_1 + pi_d_a7_a11_proc_1
      - pi_d_a11_a7_proc_1 + pi_d_a7_a12_proc_1 - pi_d_a12_a7_proc_1
      + pi_d_a7_a13_proc_1 - pi_d_a13_a7_proc_1 + pi_d_a7_a14_proc_1
      - pi_d_a14_a7_proc_1 >= 0
 c22: 1043 pi_p_a7_a3 + 1043 pi_p_a7_a6 + 1043 pi_d_a7_a0_proc_1
      + 1043 pi_d_a7_a1_proc_1 + 1043 pi_d_a7_a2_proc_1 + 1043 pi_d_a7_a3_proc_1
      + 1043 pi_d_a7_a5_proc_1 + 1043 pi_d_a7_a6_proc_1
      + 1043 pi_d_a7_a11_proc_1 + 1043 pi_d_a7_a12_proc_1
      + 1043 pi_d_a7_a13_proc_1 + 1043 pi_d_a7_a14_proc_1 + pi_y1_a7
      + pi_y2_a7_proc_1 >= 0
 c23: - pi_p_a0_a8 + pi_p_a8_a9 + pi_p_a8_a11 + pi_p_a8_a10 - pi_p_a14_a8
      - pi_p_a10_a8 - pi_d_a0_a8_proc_0 + pi_d_a8_a0_proc_0 - pi_d_a2_a8_proc_0
      + pi_d_a8_a2_proc_0 - pi_d_a4_a8_proc_0 + pi_d_a8_a4_proc_0
      - pi_d_a5_a8_proc_0 + pi_d_a8_a5_proc_0 - pi_d_a6_a8_proc_0
      + pi_d_a8_a6_proc_0 + pi_d_a8_a9_proc_0 - pi_d_a9_a8_proc_0
      + pi_d_a8_a10_proc_0 - pi_d_a10_a8_proc_0 + pi_d_a8_a12_proc_0
      - pi_d_a12_a8_proc_0 + pi_d_a8_a13_proc_0 - pi_d_a13_a8_proc_0 >= 0
 c24: 989 pi_p_a8_a9 + 989 pi_p_a8_a11 + 989 pi_p_a8_a10 + 989 pi_d_a8_a0_proc_0
      + 989 pi_d_a8_a2_proc_0 + 989 pi_d_a8_a4_proc_0 + 989 pi_d_a8_a5_proc_0
      + 989 pi_d_a8_a6_proc_0 + 989 pi_d_a8_a9_proc_0 + 989 pi_d_a8_a10_proc_0
      + 989 pi_d_a8_a12_proc_0 + 989 pi_d_a8_a13_proc_0 + pi_y1_a8
      + pi_y2_a8_proc_0 >= 0
 c25: - pi_p_a8_a9 - pi_p_a10_a9 + pi_p_a9_a11 - pi_d_a0_a9_proc_0
      + pi_d_a9_a0_proc_0 - pi_d_a2_a9_proc_0 + pi_d_a9_a2_proc_0
      - pi_d_a4_a9_proc_0 + pi_d_a9_a4_proc_0 - pi_d_a5_a9_proc_0
      + pi_d_a9_a5_proc_0 - pi_d_a6_a9_proc_0 + pi_d_a9_a6_proc_0
      - pi_d_a8_a9_proc_0 + pi_d_a9_a8_proc_0 + pi_d_a9_a10_proc_0
      - pi_d_a10_a9_proc_0 + pi_d_a9_a12_proc_0 - pi_d_a12_a9_proc_0
      + pi_d_a9_a13_proc_0 - pi_d_a13_a9_proc_0 >= 0
 c26: 1175 pi_p_a9_a11 + 1175 pi_d_a9_a0_proc_0 + 1175 pi_d_a9_a2_proc_0
      + 1175 pi_d_a9_a4_proc_0 + 1175 pi_d_a9_a5_proc_0 + 1175 pi_d_a9_a6_proc_0
      + 1175 pi_d_a9_a8_proc_0 + 1175 pi_d_a9_a10_proc_0
      + 1175 pi_d_a9_a12_proc_0 + 1175 pi_d_a9_a13_proc_0 + pi_y1_a9
      + pi_y2_a9_proc_0 >= 0
 c27: - pi_p_a0_a10 + pi_p_a10_a9 - pi_p_a8_a10 + pi_p_a10_a8
      - pi_d_a0_a10_proc_0 + pi_d_a10_a0_proc_0 - pi_d_a2_a10_proc_0
      + pi_d_a10_a2_proc_0 - pi_d_a4_a10_proc_0 + pi_d_a10_a4_proc_0
      - pi_d_a5_a10_proc_0 + pi_d_a10_a5_proc_0 - pi_d_a6_a10_proc_0
      + pi_d_a10_a6_proc_0 - pi_d_a8_a10_proc_0 + pi_d_a10_a8_proc_0
      - pi_d_a9_a10_proc_0 + pi_d_a10_a9_proc_0 + pi_d_a10_a12_proc_0
      - pi_d_a12_a10_proc_0 + pi_d_a10_a13_proc_0 - pi_d_a13_a10_proc_0 >= 0
 c28: 617 pi_p_a10_a9 + 617 pi_p_a10_a8 + 617 pi_d_a10_a0_proc_0
      + 617 pi_d_a10_a2_proc_0 + 617 pi_d_a10_a4_proc_0 + 617 pi_d_a10_a5_proc_0
      + 617 pi_d_a10_a6_proc_0 + 617 pi_d_a10_a8_proc_0 + 617 pi_d_a10_a9_proc_0
      + 617 pi_d_a10_a12_proc_0 + 617 pi_d_a10_a13_proc_0 + pi_y1_a10
      + pi_y2_a10_proc_0 >= 0
 c29: - pi_p_a8_a11 - pi_p_a14_a11 + pi_p_a11_a13 - pi_p_a9_a11 + pi_p_a11_a14
      + pi_p_a11_a4 - pi_d_a0_a11_proc_1 + pi_d_a11_a0_proc_1
      - pi_d_a1_a11_proc_1 + pi_d_a11_a1_proc_1 - pi_d_a2_a11_proc_1
      + pi_d_a11_a2_proc_1 - pi_d_a3_a11_proc_1 + pi_d_a11_a3_proc_1
      - pi_d_a5_a11_proc_1 + pi_d_a11_a5_proc_1 - pi_d_a6_a11_proc_1
      + pi_d_a11_a6_proc_1 - pi_d_a7_a11_proc_1 + pi_d_a11_a7_proc_1
      + pi_d_a11_a12_proc_1 - pi_d_a12_a11_proc_1 + pi_d_a11_a13_proc_1
      - pi_d_a13_a11_proc_1 + pi_d_a11_a14_proc_1 - pi_d_a14_a11_proc_1 >= 0
 c30: 1059 pi_p_a11_a13 + 1059 pi_p_a11_a14 + 1059 pi_p_a11_a4
      + 1059 pi_d_a11_a0_proc_1 + 1059 pi_d_a11_a1_proc_1
      + 1059 pi_d_a11_a2_proc_1 + 1059 pi_d_a11_a3_proc_1
      + 1059 pi_d_a11_a5_proc_1 + 1059 pi_d_a11_a6_proc_1
      + 1059 pi_d_a11_a7_proc_1 + 1059 pi_d_a11_a12_proc_1
      + 1059 pi_d_a11_a13_proc_1 + 1059 pi_d_a11_a14_proc_1 + pi_y1_a11
      + pi_y2_a11_proc_1 >= 0
 c31: pi_p_a12_a2 - pi_p_a14_a12 - pi_p_a0_a12 + pi_p_a12_a14
      - pi_d_a0_a12_proc_0 - pi_d_a0_a12_proc_1 + pi_d_a12_a0_proc_0
      + pi_d_a12_a0_proc_1 - pi_d_a1_a12_proc_1 + pi_d_a12_a1_proc_1
      - pi_d_a2_a12_proc_0 - pi_d_a2_a12_proc_1 + pi_d_a12_a2_proc_0
      + pi_d_a12_a2_proc_1 - pi_d_a3_a12_proc_1 + pi_d_a12_a3_proc_1
      - pi_d_a4_a12_proc_0 + pi_d_a12_a4_proc_0 - pi_d_a5_a12_proc_0
      - pi_d_a5_a12_proc_1 + pi_d_a12_a5_proc_0 + pi_d_a12_a5_proc_1
      - pi_d_a6_a12_proc_0 - pi_d_a6_a12_proc_1 + pi_d_a12_a6_proc_0
      + pi_d_a12_a6_proc_1 - pi_d_a7_a12_proc_1 + pi_d_a12_a7_proc_1
      - pi_d_a8_a12_proc_0 + pi_d_a12_a8_proc_0 - pi_d_a9_a12_proc_0
      + pi_d_a12_a9_proc_0 - pi_d_a10_a12_proc_0 + pi_d_a12_a10_proc_0
      - pi_d_a11_a12_proc_1 + pi_d_a12_a11_proc_1 + pi_d_a12_a13_proc_0
      + pi_d_a12_a13_proc_1 - pi_d_a13_a12_proc_0 - pi_d_a13_a12_proc_1
      + pi_d_a12_a14_proc_1 - pi_d_a14_a12_proc_1 >= 0
 c32: 1192 pi_p_a12_a2 + 1192 pi_p_a12_a14 + 1192 pi_d_a12_a0_proc_0
      + 1192 pi_d_a12_a2_proc_0 + 1192 pi_d_a12_a4_proc_0
      + 1192 pi_d_a12_a5_proc_0 + 1192 pi_d_a12_a6_proc_0
      + 1192 pi_d_a12_a8_proc_0 + 1192 pi_d_a12_a9_proc_0
      + 1192 pi_d_a12_a10_proc_0 + 1192 pi_d_a12_a13_proc_0 + pi_y1_a12
      + pi_y2_a12_proc_0 >= 0
 c33: 1135 pi_p_a12_a2 + 1135 pi_p_a12_a14 + 1135 pi_d_a12_a0_proc_1
      + 1135 pi_d_a12_a1_proc_1 + 1135 pi_d_a12_a2_proc_1
      + 1135 pi_d_a12_a3_proc_1 + 1135 pi_d_a12_a5_proc_1
      + 1135 pi_d_a12_a6_proc_1 + 1135 pi_d_a12_a7_proc_1
      + 1135 pi_d_a12_a11_proc_1 + 1135 pi_d_a12_a13_proc_1
      + 1135 pi_d_a12_a14_proc_1 + pi_y1_a12 + pi_y2_a12_proc_1 >= 0
 c34: pi_p_a13_a7 + pi_p_a13_a4 - pi_p_a11_a13 + pi_p_a13_a3
      - pi_d_a0_a13_proc_0 - pi_d_a0_a13_proc_1 + pi_d_a13_a0_proc_0
      + pi_d_a13_a0_proc_1 - pi_d_a1_a13_proc_1 + pi_d_a13_a1_proc_1
      - pi_d_a2_a13_proc_0 - pi_d_a2_a13_proc_1 + pi_d_a13_a2_proc_0
      + pi_d_a13_a2_proc_1 - pi_d_a3_a13_proc_1 + pi_d_a13_a3_proc_1
      - pi_d_a4_a13_proc_0 + pi_d_a13_a4_proc_0 - pi_d_a5_a13_proc_0
      - pi_d_a5_a13_proc_1 + pi_d_a13_a5_proc_0 + pi_d_a13_a5_proc_1
      - pi_d_a6_a13_proc_0 - pi_d_a6_a13_proc_1 + pi_d_a13_a6_proc_0
      + pi_d_a13_a6_proc_1 - pi_d_a7_a13_proc_1 + pi_d_a13_a7_proc_1
      - pi_d_a8_a13_proc_0 + pi_d_a13_a8_proc_0 - pi_d_a9_a13_proc_0
      + pi_d_a13_a9_proc_0 - pi_d_a10_a13_proc_0 + pi_d_a13_a10_proc_0
      - pi_d_a11_a13_proc_1 + pi_d_a13_a11_proc_1 - pi_d_a12_a13_proc_0
      - pi_d_a12_a13_proc_1 + pi_d_a13_a12_proc_0 + pi_d_a13_a12_proc_1
      + pi_d_a13_a14_proc_1 - pi_d_a14_a13_proc_1 >= 0
 c35: 921 pi_p_a13_a7 + 921 pi_p_a13_a4 + 921 pi_p_a13_a3
      + 921 pi_d_a13_a0_proc_0 + 921 pi_d_a13_a2_proc_0 + 921 pi_d_a13_a4_proc_0
      + 921 pi_d_a13_a5_proc_0 + 921 pi_d_a13_a6_proc_0 + 921 pi_d_a13_a8_proc_0
      + 921 pi_d_a13_a9_proc_0 + 921 pi_d_a13_a10_proc_0
      + 921 pi_d_a13_a12_proc_0 + pi_y1_a13 + pi_y2_a13_proc_0 >= 0
 c36: 969 pi_p_a13_a7 + 969 pi_p_a13_a4 + 969 pi_p_a13_a3
      + 969 pi_d_a13_a0_proc_1 + 969 pi_d_a13_a1_proc_1 + 969 pi_d_a13_a2_proc_1
      + 969 pi_d_a13_a3_proc_1 + 969 pi_d_a13_a5_proc_1 + 969 pi_d_a13_a6_proc_1
      + 969 pi_d_a13_a7_proc_1 + 969 pi_d_a13_a11_proc_1
      + 969 pi_d_a13_a12_proc_1 + 969 pi_d_a13_a14_proc_1 + pi_y1_a13
      + pi_y2_a13_proc_1 >= 0
 c37: pi_p_a14_a12 - pi_p_a5_a14 + pi_p_a14_a8 + pi_p_a14_a11 - pi_p_a11_a14
      - pi_p_a12_a14 - pi_d_a0_a14_proc_1 + pi_d_a14_a0_proc_1
      - pi_d_a1_a14_proc_1 + pi_d_a14_a1_proc_1 - pi_d_a2_a14_proc_1
      + pi_d_a14_a2_proc_1 - pi_d_a3_a14_proc_1 + pi_d_a14_a3_proc_1
      - pi_d_a5_a14_proc_1 + pi_d_a14_a5_proc_1 - pi_d_a6_a14_proc_1
      + pi_d_a14_a6_proc_1 - pi_d_a7_a14_proc_1 + pi_d_a14_a7_proc_1
      - pi_d_a11_a14_proc_1 + pi_d_a14_a11_proc_1 - pi_d_a12_a14_proc_1
      + pi_d_a14_a12_proc_1 - pi_d_a13_a14_proc_1 + pi_d_a14_a13_proc_1 >= 0
 c38: 908 pi_p_a14_a12 + 908 pi_p_a14_a8 + 908 pi_p_a14_a11
      + 908 pi_d_a14_a0_proc_1 + 908 pi_d_a14_a1_proc_1 + 908 pi_d_a14_a2_proc_1
      + 908 pi_d_a14_a3_proc_1 + 908 pi_d_a14_a5_proc_1 + 908 pi_d_a14_a6_proc_1
      + 908 pi_d_a14_a7_proc_1 + 908 pi_d_a14_a11_proc_1
      + 908 pi_d_a14_a12_proc_1 + 908 pi_d_a14_a13_proc_1 + pi_y1_a14
      + pi_y2_a14_proc_1 >= 0

Bounds
       pi_y1_a0 Free
       pi_y1_a1 Free
       pi_y1_a2 Free
       pi_y1_a3 Free
       pi_y1_a4 Free
       pi_y1_a5 Free
       pi_y1_a6 Free
       pi_y1_a7 Free
       pi_y1_a8 Free
       pi_y1_a9 Free
       pi_y1_a10 Free
       pi_y1_a11 Free
       pi_y1_a12 Free
       pi_y1_a13 Free
       pi_y1_a14 Free
End
